Maximize
  NxS_e0 + NxS_e1 + NxS_e2 + NxS_e3 + NxS_e4 + NxS_e5 + NxS_e6 + NxS_e7 + NxS_e8 + NxS_e9 + NxS_e10 + NxS_e11
Subject to
  -S_BB_1 + S_e_0 = 0
  -S_BB_1 = 0
  -S_BB_2 + S_e_1 = 0
  -S_BB_2 + S_e_0 + S_e_4 = 0
  -S_BB_3 + S_e_2 + S_e_3 = 0
  -S_BB_3 + S_e_1 + S_e_2 = 0
  -S_BB_4 + S_e_4 + S_e_5 = 0
  -S_BB_4 + S_e_3 = 0
  -S_BB_5 + S_e_6 = 0
  -S_BB_5 + S_e_5 = 0
  -S_BB_6 + S_e_7 = 0
  -S_BB_6 + S_e_6 + S_e_10 = 0
  -S_BB_7 + S_e_8 + S_e_9 = 0
  -S_BB_7 + S_e_7 + S_e_8 = 0
  -S_BB_8 + S_e_10 + S_e_11 = 0
  -S_BB_8 + S_e_9 = 0
  -S_BB_9 = 0
  -S_BB_9 + S_e_11 = 0
  NxS_e0 - N <= 0
  -992 S_e_0 + NxS_e0 <= 0
  -992 S_e_0 + NxS_e0 - N >= -992
  -991 S_e_0 - N >= -992
  NxS_e1 - N <= 0
  -992 S_e_1 + NxS_e1 <= 0
  -992 S_e_1 + NxS_e1 - N >= -992
  -960 S_e_1 - N >= -992
  NxS_e2 - N <= 0
  -992 S_e_2 + NxS_e2 <= 0
  -992 S_e_2 + NxS_e2 - N >= -992
  -N >= -992
  NxS_e3 - N <= 0
  -992 S_e_3 + NxS_e3 <= 0
  -992 S_e_3 + NxS_e3 - N >= -992
  -960 S_e_3 - N >= -992
  NxS_e4 - N <= 0
  -992 S_e_4 + NxS_e4 <= 0
  -992 S_e_4 + NxS_e4 - N >= -992
  -961 S_e_4 - N >= -992
  NxS_e5 - N <= 0
  -992 S_e_5 + NxS_e5 <= 0
  -992 S_e_5 + NxS_e5 - N >= -992
  -991 S_e_5 - N >= -992
  NxS_e6 - N <= 0
  -992 S_e_6 + NxS_e6 <= 0
  -992 S_e_6 + NxS_e6 - N >= -992
  -991 S_e_6 - N >= -992
  NxS_e7 - N <= 0
  -992 S_e_7 + NxS_e7 <= 0
  -992 S_e_7 + NxS_e7 - N >= -992
  -960 S_e_7 - N >= -992
  NxS_e8 - N <= 0
  -992 S_e_8 + NxS_e8 <= 0
  -992 S_e_8 + NxS_e8 - N >= -992
  -N >= -992
  NxS_e9 - N <= 0
  -992 S_e_9 + NxS_e9 <= 0
  -992 S_e_9 + NxS_e9 - N >= -992
  -960 S_e_9 - N >= -992
  NxS_e10 - N <= 0
  -992 S_e_10 + NxS_e10 <= 0
  -992 S_e_10 + NxS_e10 - N >= -992
  -961 S_e_10 - N >= -992
  NxS_e11 - N <= 0
  -992 S_e_11 + NxS_e11 <= 0
  -992 S_e_11 + NxS_e11 - N >= -992
  -991 S_e_11 - N >= -992
  S_e_2 + S_e_4 + S_e_8 + S_e_10 = 1
Bounds
  0 <= NxS_e0 <= 1
  0 <= NxS_e1 <= 32
  0 <= NxS_e2 <= 992
  0 <= NxS_e3 <= 32
  0 <= NxS_e4 <= 31
  0 <= NxS_e5 <= 1
  0 <= NxS_e6 <= 1
  0 <= NxS_e7 <= 32
  0 <= NxS_e8 <= 992
  0 <= NxS_e9 <= 32
  0 <= NxS_e10 <= 31
  0 <= NxS_e11 <= 1
  0 <= N <= 992
General
  N
Binary
  S_BB_1 S_BB_2 S_BB_3 S_BB_4 S_BB_5 S_BB_6 S_BB_7 S_BB_8 S_BB_9 S_e_0 S_e_1 S_e_2 S_e_3 S_e_4 S_e_5 S_e_6 S_e_7 S_e_8 S_e_9 S_e_10 S_e_11
End
